c File:  zeroin.i.2.col
c
c SOURCE: Gary Lewandowski (gary@cs.wisc.edu)
c
c DESCRIPTION: Coloring problem generated from a register allocation
c              problem based on real code.
c
c graph #2 from register allocation file zeroin.i
p edge 211 3541
e 2 1
e 3 1
e 3 2
e 4 1
e 4 2
e 4 3
e 5 1
e 5 2
e 5 3
e 5 4
e 6 1
e 6 2
e 6 3
e 6 4
e 6 5
e 7 1
e 7 2
e 7 3
e 7 4
e 7 5
e 7 6
e 8 1
e 8 2
e 8 3
e 8 4
e 8 5
e 8 6
e 8 7
e 9 1
e 9 2
e 9 3
e 9 4
e 9 5
e 9 6
e 9 7
e 9 8
e 10 1
e 10 2
e 10 3
e 10 4
e 10 5
e 10 6
e 10 7
e 10 8
e 10 9
e 11 1
e 11 2
e 11 3
e 11 4
e 11 5
e 11 6
e 11 7
e 11 8
e 11 9
e 11 10
e 12 1
e 12 2
e 12 3
e 12 4
e 12 5
e 12 6
e 12 7
e 12 8
e 12 9
e 12 10
e 12 11
e 13 1
e 13 2
e 13 3
e 13 4
e 13 5
e 13 6
e 13 7
e 13 8
e 13 9
e 13 10
e 13 11
e 13 12
e 14 1
e 14 2
e 14 3
e 14 4
e 14 5
e 14 6
e 14 7
e 14 8
e 14 9
e 14 10
e 14 11
e 14 12
e 14 13
e 15 1
e 15 2
e 15 3
e 15 4
e 15 5
e 15 6
e 15 7
e 15 8
e 15 9
e 15 10
e 15 11
e 15 12
e 15 13
e 15 14
e 16 1
e 16 2
e 16 3
e 16 4
e 16 5
e 16 6
e 16 7
e 16 8
e 16 9
e 16 10
e 16 11
e 16 12
e 16 13
e 16 14
e 16 15
e 18 17
e 19 17
e 19 18
e 20 17
e 20 18
e 20 19
e 21 17
e 21 18
e 21 19
e 21 20
e 22 17
e 22 18
e 22 19
e 22 20
e 22 21
e 23 17
e 23 18
e 23 19
e 23 20
e 23 21
e 23 22
e 24 17
e 24 18
e 24 19
e 24 20
e 24 21
e 24 22
e 24 23
e 25 17
e 25 18
e 25 19
e 25 20
e 25 21
e 25 22
e 25 23
e 25 24
e 26 17
e 26 18
e 26 19
e 26 20
e 26 21
e 26 22
e 26 23
e 26 24
e 26 25
e 27 17
e 27 18
e 27 19
e 27 20
e 27 21
e 27 22
e 27 23
e 27 24
e 27 25
e 27 26
e 28 17
e 28 18
e 28 19
e 28 20
e 28 21
e 28 22
e 28 23
e 28 24
e 28 25
e 28 26
e 28 27
e 29 17
e 29 18
e 29 19
e 29 20
e 29 21
e 29 22
e 29 23
e 29 24
e 29 25
e 29 26
e 29 27
e 29 28
e 30 17
e 30 18
e 30 19
e 30 20
e 30 21
e 30 22
e 30 23
e 30 24
e 30 25
e 30 26
e 30 27
e 30 28
e 30 29
e 31 17
e 31 18
e 31 19
e 31 20
e 31 21
e 31 22
e 31 23
e 31 24
e 31 25
e 31 26
e 31 27
e 31 28
e 31 29
e 31 30
e 32 17
e 32 18
e 32 19
e 32 20
e 32 21
e 32 22
e 32 23
e 32 24
e 32 25
e 32 26
e 32 27
e 32 28
e 32 29
e 32 30
e 32 31
e 33 1
e 33 2
e 33 3
e 33 4
e 33 5
e 33 6
e 33 7
e 33 8
e 33 9
e 33 10
e 33 11
e 33 12
e 33 13
e 33 14
e 33 15
e 33 16
e 33 17
e 33 27
e 33 28
e 33 29
e 33 30
e 33 31
e 33 32
e 36 1
e 36 2
e 36 3
e 36 4
e 36 5
e 36 6
e 36 7
e 36 8
e 36 9
e 36 10
e 36 11
e 36 12
e 36 13
e 36 14
e 36 15
e 36 16
e 36 17
e 36 27
e 36 28
e 36 29
e 36 30
e 36 31
e 36 32
e 36 33
e 41 1
e 41 2
e 41 3
e 41 4
e 41 5
e 41 6
e 41 7
e 41 8
e 41 9
e 41 10
e 41 11
e 41 12
e 41 13
e 41 14
e 41 15
e 41 16
e 41 17
e 41 27
e 41 28
e 41 29
e 41 30
e 41 31
e 41 32
e 41 33
e 41 36
e 43 1
e 43 2
e 43 3
e 43 4
e 43 5
e 43 6
e 43 7
e 43 8
e 43 9
e 43 10
e 43 11
e 43 12
e 43 13
e 43 14
e 43 15
e 43 16
e 43 17
e 43 27
e 43 28
e 43 29
e 43 30
e 43 31
e 43 32
e 43 33
e 43 36
e 43 41
e 45 1
e 45 2
e 45 3
e 45 4
e 45 5
e 45 6
e 45 7
e 45 8
e 45 9
e 45 10
e 45 11
e 45 12
e 45 13
e 45 14
e 45 15
e 45 16
e 45 17
e 45 27
e 45 28
e 45 29
e 45 30
e 45 31
e 45 32
e 45 33
e 45 36
e 45 41
e 45 43
e 47 1
e 47 2
e 47 3
e 47 4
e 47 5
e 47 6
e 47 7
e 47 8
e 47 9
e 47 10
e 47 11
e 47 12
e 47 13
e 47 14
e 47 15
e 47 16
e 47 17
e 47 27
e 47 28
e 47 29
e 47 30
e 47 31
e 47 32
e 47 33
e 47 36
e 48 1
e 48 2
e 48 3
e 48 4
e 48 5
e 48 6
e 48 7
e 48 8
e 48 9
e 48 10
e 48 11
e 48 12
e 48 13
e 48 14
e 48 15
e 48 16
e 48 17
e 48 27
e 48 28
e 48 29
e 48 30
e 48 31
e 48 32
e 48 33
e 48 36
e 48 41
e 48 43
e 48 45
e 48 47
e 51 1
e 51 2
e 51 3
e 51 4
e 51 5
e 51 6
e 51 7
e 51 8
e 51 9
e 51 10
e 51 11
e 51 12
e 51 13
e 51 14
e 51 15
e 51 16
e 51 17
e 51 27
e 51 33
e 51 36
e 51 41
e 51 43
e 51 45
e 51 47
e 51 48
e 54 1
e 54 2
e 54 3
e 54 4
e 54 5
e 54 6
e 54 7
e 54 8
e 54 9
e 54 10
e 54 11
e 54 12
e 54 13
e 54 14
e 54 15
e 54 16
e 54 17
e 54 27
e 54 28
e 54 29
e 54 30
e 54 31
e 54 32
e 54 33
e 54 36
e 54 41
e 54 43
e 54 45
e 54 48
e 54 51
e 56 1
e 56 2
e 56 3
e 56 4
e 56 5
e 56 6
e 56 7
e 56 8
e 56 9
e 56 10
e 56 11
e 56 12
e 56 13
e 56 14
e 56 15
e 56 16
e 56 17
e 56 27
e 56 36
e 56 41
e 56 43
e 56 45
e 56 51
e 56 54
e 57 1
e 57 2
e 57 3
e 57 4
e 57 5
e 57 6
e 57 7
e 57 8
e 57 9
e 57 10
e 57 11
e 57 12
e 57 13
e 57 14
e 57 15
e 57 16
e 57 17
e 57 27
e 57 36
e 57 41
e 57 43
e 57 45
e 57 51
e 57 54
e 57 56
e 59 1
e 59 2
e 59 3
e 59 4
e 59 5
e 59 6
e 59 7
e 59 8
e 59 9
e 59 10
e 59 11
e 59 12
e 59 13
e 59 14
e 59 15
e 59 16
e 59 17
e 59 27
e 59 33
e 59 36
e 59 41
e 59 43
e 59 45
e 59 48
e 59 51
e 59 54
e 60 1
e 60 2
e 60 3
e 60 4
e 60 5
e 60 6
e 60 7
e 60 8
e 60 9
e 60 10
e 60 11
e 60 12
e 60 13
e 60 14
e 60 15
e 60 16
e 60 17
e 60 27
e 60 33
e 60 36
e 60 41
e 60 43
e 60 45
e 60 48
e 60 51
e 60 54
e 60 59
e 61 1
e 61 2
e 61 3
e 61 4
e 61 5
e 61 6
e 61 7
e 61 8
e 61 9
e 61 10
e 61 11
e 61 12
e 61 13
e 61 14
e 61 15
e 61 16
e 61 17
e 61 27
e 61 33
e 61 36
e 61 41
e 61 43
e 61 45
e 61 48
e 61 51
e 61 54
e 61 56
e 61 57
e 61 60
e 62 1
e 62 2
e 62 3
e 62 5
e 62 6
e 62 7
e 62 8
e 62 9
e 62 10
e 62 11
e 62 12
e 62 13
e 62 14
e 62 16
e 62 17
e 62 18
e 62 19
e 62 20
e 62 21
e 62 22
e 62 23
e 62 24
e 62 25
e 62 26
e 62 27
e 62 28
e 62 29
e 62 30
e 62 31
e 62 32
e 63 1
e 63 2
e 63 3
e 63 6
e 63 7
e 63 8
e 63 9
e 63 10
e 63 11
e 63 12
e 63 13
e 63 14
e 63 16
e 63 17
e 63 18
e 63 19
e 63 20
e 63 21
e 63 22
e 63 23
e 63 24
e 63 25
e 63 26
e 63 27
e 63 28
e 63 29
e 63 30
e 63 31
e 63 32
e 64 1
e 64 2
e 64 3
e 64 7
e 64 8
e 64 9
e 64 10
e 64 11
e 64 12
e 64 13
e 64 14
e 64 16
e 64 17
e 64 18
e 64 19
e 64 20
e 64 21
e 64 22
e 64 23
e 64 24
e 64 25
e 64 26
e 64 27
e 64 28
e 64 29
e 64 30
e 64 31
e 64 32
e 65 1
e 65 2
e 65 3
e 65 8
e 65 9
e 65 10
e 65 11
e 65 12
e 65 13
e 65 14
e 65 16
e 65 17
e 65 18
e 65 19
e 65 20
e 65 21
e 65 22
e 65 23
e 65 24
e 65 25
e 65 26
e 65 27
e 65 28
e 65 29
e 65 30
e 65 31
e 65 32
e 66 1
e 66 2
e 66 3
e 66 9
e 66 10
e 66 11
e 66 12
e 66 13
e 66 14
e 66 16
e 66 17
e 66 18
e 66 19
e 66 20
e 66 21
e 66 22
e 66 23
e 66 24
e 66 25
e 66 26
e 66 27
e 66 28
e 66 29
e 66 30
e 66 31
e 66 32
e 67 1
e 67 2
e 67 3
e 67 10
e 67 11
e 67 12
e 67 13
e 67 14
e 67 15
e 67 16
e 67 17
e 67 18
e 67 19
e 67 20
e 67 21
e 67 22
e 67 23
e 67 24
e 67 25
e 67 26
e 67 27
e 67 28
e 67 29
e 67 30
e 67 31
e 67 32
e 68 1
e 68 2
e 68 3
e 68 11
e 68 12
e 68 13
e 68 14
e 68 15
e 68 16
e 68 17
e 68 18
e 68 19
e 68 20
e 68 21
e 68 22
e 68 23
e 68 24
e 68 25
e 68 26
e 68 27
e 68 28
e 68 29
e 68 30
e 68 31
e 68 32
e 68 67
e 69 1
e 69 2
e 69 3
e 69 11
e 69 12
e 69 13
e 69 14
e 69 15
e 69 16
e 69 17
e 69 18
e 69 19
e 69 20
e 69 21
e 69 22
e 69 23
e 69 24
e 69 25
e 69 26
e 69 27
e 69 28
e 69 29
e 69 30
e 69 31
e 69 32
e 69 67
e 69 68
e 70 1
e 70 2
e 70 3
e 70 4
e 70 5
e 70 6
e 70 7
e 70 8
e 70 9
e 70 10
e 70 11
e 70 12
e 70 13
e 70 14
e 70 15
e 70 16
e 70 17
e 70 19
e 70 20
e 70 21
e 70 22
e 70 23
e 70 24
e 70 25
e 70 26
e 71 1
e 71 2
e 71 3
e 71 4
e 71 5
e 71 6
e 71 7
e 71 8
e 71 9
e 71 10
e 71 11
e 71 12
e 71 13
e 71 14
e 71 15
e 71 16
e 71 17
e 71 20
e 71 21
e 71 22
e 71 23
e 71 24
e 71 25
e 71 26
e 72 1
e 72 2
e 72 3
e 72 4
e 72 5
e 72 6
e 72 7
e 72 8
e 72 9
e 72 10
e 72 11
e 72 12
e 72 13
e 72 14
e 72 15
e 72 16
e 72 17
e 72 21
e 72 22
e 72 23
e 72 24
e 72 25
e 72 26
e 73 1
e 73 2
e 73 3
e 73 4
e 73 5
e 73 6
e 73 7
e 73 8
e 73 9
e 73 10
e 73 11
e 73 12
e 73 13
e 73 14
e 73 15
e 73 16
e 73 17
e 73 22
e 73 23
e 73 24
e 73 25
e 73 26
e 74 1
e 74 2
e 74 3
e 74 4
e 74 5
e 74 6
e 74 7
e 74 8
e 74 9
e 74 10
e 74 11
e 74 12
e 74 13
e 74 14
e 74 15
e 74 16
e 74 17
e 74 23
e 74 24
e 74 25
e 74 26
e 75 1
e 75 2
e 75 3
e 75 4
e 75 5
e 75 6
e 75 7
e 75 8
e 75 9
e 75 10
e 75 11
e 75 12
e 75 13
e 75 14
e 75 15
e 75 16
e 75 17
e 75 24
e 75 25
e 75 26
e 76 1
e 76 2
e 76 3
e 76 4
e 76 5
e 76 6
e 76 7
e 76 8
e 76 9
e 76 10
e 76 11
e 76 12
e 76 13
e 76 14
e 76 15
e 76 16
e 76 17
e 76 25
e 76 26
e 77 1
e 77 2
e 77 3
e 77 4
e 77 5
e 77 6
e 77 7
e 77 8
e 77 9
e 77 10
e 77 11
e 77 12
e 77 13
e 77 14
e 77 15
e 77 16
e 77 17
e 77 26
e 78 1
e 78 2
e 78 3
e 78 4
e 78 5
e 78 6
e 78 7
e 78 8
e 78 9
e 78 10
e 78 11
e 78 12
e 78 13
e 78 14
e 78 15
e 78 16
e 78 17
e 79 1
e 79 2
e 79 3
e 79 11
e 79 12
e 79 13
e 79 14
e 79 15
e 79 16
e 79 17
e 79 18
e 79 19
e 79 20
e 79 21
e 79 22
e 79 23
e 79 24
e 79 25
e 79 26
e 79 27
e 79 28
e 79 29
e 79 30
e 79 31
e 79 32
e 79 67
e 79 68
e 79 69
e 80 1
e 80 2
e 80 3
e 80 4
e 80 5
e 80 6
e 80 7
e 80 8
e 80 9
e 80 10
e 80 11
e 80 12
e 80 13
e 80 14
e 80 15
e 80 16
e 80 17
e 81 1
e 81 2
e 81 3
e 81 11
e 81 12
e 81 13
e 81 14
e 81 15
e 81 16
e 81 17
e 81 18
e 81 19
e 81 20
e 81 21
e 81 22
e 81 23
e 81 24
e 81 25
e 81 26
e 81 27
e 81 28
e 81 29
e 81 30
e 81 31
e 81 32
e 81 67
e 81 68
e 81 69
e 81 79
e 82 1
e 82 2
e 82 3
e 82 4
e 82 5
e 82 6
e 82 7
e 82 8
e 82 9
e 82 10
e 82 11
e 82 12
e 82 13
e 82 14
e 82 15
e 82 16
e 82 17
e 83 1
e 83 2
e 83 3
e 83 11
e 83 12
e 83 13
e 83 14
e 83 15
e 83 16
e 83 17
e 83 18
e 83 19
e 83 20
e 83 21
e 83 22
e 83 23
e 83 24
e 83 25
e 83 26
e 83 27
e 83 28
e 83 29
e 83 30
e 83 31
e 83 32
e 83 67
e 83 68
e 83 69
e 83 79
e 83 81
e 84 1
e 84 2
e 84 3
e 84 11
e 84 12
e 84 13
e 84 14
e 84 15
e 84 16
e 84 17
e 84 18
e 84 19
e 84 20
e 84 21
e 84 22
e 84 23
e 84 24
e 84 25
e 84 26
e 84 27
e 84 28
e 84 29
e 84 30
e 84 31
e 84 32
e 84 67
e 84 68
e 84 69
e 84 79
e 84 81
e 84 83
e 85 1
e 85 2
e 85 3
e 85 4
e 85 5
e 85 6
e 85 7
e 85 8
e 85 9
e 85 10
e 85 11
e 85 12
e 85 13
e 85 14
e 85 15
e 85 16
e 85 17
e 88 1
e 88 2
e 88 3
e 88 4
e 88 5
e 88 6
e 88 7
e 88 8
e 88 9
e 88 10
e 88 11
e 88 12
e 88 13
e 88 14
e 88 15
e 88 16
e 88 17
e 88 47
e 90 1
e 90 2
e 90 3
e 90 4
e 90 5
e 90 6
e 90 7
e 90 8
e 90 9
e 90 10
e 90 11
e 90 12
e 90 13
e 90 14
e 90 15
e 90 16
e 90 17
e 90 47
e 91 1
e 91 2
e 91 3
e 91 4
e 91 5
e 91 6
e 91 7
e 91 8
e 91 9
e 91 10
e 91 11
e 91 12
e 91 13
e 91 14
e 91 15
e 91 16
e 91 17
e 91 47
e 91 90
e 92 1
e 92 2
e 92 3
e 92 4
e 92 5
e 92 6
e 92 7
e 92 8
e 92 9
e 92 10
e 92 11
e 92 12
e 92 13
e 92 14
e 92 15
e 92 16
e 92 17
e 92 47
e 99 1
e 99 2
e 99 3
e 99 4
e 99 5
e 99 6
e 99 7
e 99 8
e 99 9
e 99 10
e 99 11
e 99 12
e 99 13
e 99 14
e 99 15
e 99 16
e 99 17
e 99 27
e 99 33
e 99 36
e 99 47
e 99 48
e 99 51
e 101 1
e 101 2
e 101 3
e 101 4
e 101 5
e 101 6
e 101 7
e 101 8
e 101 9
e 101 10
e 101 11
e 101 12
e 101 13
e 101 14
e 101 15
e 101 16
e 101 17
e 101 27
e 101 33
e 101 36
e 101 48
e 101 51
e 106 1
e 106 2
e 106 3
e 106 4
e 106 5
e 106 6
e 106 7
e 106 8
e 106 9
e 106 10
e 106 11
e 106 12
e 106 13
e 106 14
e 106 15
e 106 16
e 106 17
e 106 27
e 106 33
e 106 36
e 106 41
e 106 43
e 106 45
e 106 48
e 106 51
e 106 54
e 107 1
e 107 2
e 107 3
e 107 4
e 107 5
e 107 6
e 107 7
e 107 8
e 107 9
e 107 10
e 107 11
e 107 12
e 107 13
e 107 14
e 107 15
e 107 16
e 107 17
e 107 27
e 107 33
e 107 36
e 107 41
e 107 43
e 107 45
e 107 48
e 107 51
e 107 54
e 108 1
e 108 2
e 108 3
e 108 4
e 108 5
e 108 6
e 108 7
e 108 8
e 108 9
e 108 10
e 108 11
e 108 12
e 108 13
e 108 14
e 108 15
e 108 16
e 108 17
e 108 27
e 108 33
e 108 36
e 108 41
e 108 43
e 108 45
e 108 48
e 108 51
e 108 54
e 108 107
e 109 1
e 109 2
e 109 3
e 109 4
e 109 5
e 109 6
e 109 7
e 109 8
e 109 9
e 109 10
e 109 11
e 109 12
e 109 13
e 109 14
e 109 15
e 109 16
e 109 17
e 109 27
e 109 33
e 109 36
e 109 41
e 109 43
e 109 45
e 109 48
e 109 51
e 109 54
e 110 1
e 110 2
e 110 3
e 110 4
e 110 5
e 110 6
e 110 7
e 110 8
e 110 9
e 110 10
e 110 11
e 110 12
e 110 13
e 110 14
e 110 15
e 110 16
e 110 17
e 110 27
e 110 33
e 110 36
e 110 41
e 110 43
e 110 45
e 110 48
e 110 51
e 110 54
e 117 1
e 117 2
e 117 3
e 117 4
e 117 5
e 117 6
e 117 7
e 117 8
e 117 9
e 117 10
e 117 11
e 117 12
e 117 13
e 117 14
e 117 15
e 117 16
e 117 17
e 117 27
e 117 33
e 117 36
e 117 41
e 117 43
e 117 45
e 117 48
e 117 51
e 117 54
e 117 110
e 120 1
e 120 2
e 120 3
e 120 4
e 120 5
e 120 6
e 120 7
e 120 8
e 120 9
e 120 10
e 120 11
e 120 12
e 120 13
e 120 14
e 120 15
e 120 16
e 120 17
e 120 27
e 120 33
e 120 36
e 120 41
e 120 43
e 120 45
e 120 48
e 120 51
e 120 54
e 120 59
e 120 60
e 121 1
e 121 2
e 121 3
e 121 4
e 121 5
e 121 6
e 121 7
e 121 8
e 121 9
e 121 10
e 121 11
e 121 12
e 121 13
e 121 14
e 121 15
e 121 16
e 121 17
e 121 27
e 121 33
e 121 36
e 121 41
e 121 43
e 121 45
e 121 48
e 121 51
e 121 54
e 121 59
e 121 60
e 121 120
e 122 1
e 122 2
e 122 3
e 122 4
e 122 5
e 122 6
e 122 7
e 122 8
e 122 9
e 122 10
e 122 11
e 122 12
e 122 13
e 122 14
e 122 15
e 122 16
e 122 17
e 122 27
e 122 33
e 122 36
e 122 41
e 122 43
e 122 45
e 122 48
e 122 51
e 122 54
e 122 59
e 122 60
e 124 1
e 124 2
e 124 3
e 124 4
e 124 5
e 124 6
e 124 7
e 124 8
e 124 9
e 124 10
e 124 11
e 124 12
e 124 13
e 124 14
e 124 15
e 124 16
e 124 17
e 124 27
e 124 33
e 124 36
e 124 41
e 124 43
e 124 45
e 124 48
e 124 51
e 124 54
e 124 60
e 124 61
e 125 1
e 125 2
e 125 3
e 125 4
e 125 5
e 125 6
e 125 7
e 125 8
e 125 9
e 125 10
e 125 11
e 125 12
e 125 13
e 125 14
e 125 15
e 125 16
e 125 17
e 125 27
e 125 33
e 125 36
e 125 41
e 125 43
e 125 45
e 125 48
e 125 51
e 125 54
e 125 56
e 125 57
e 125 61
e 126 1
e 126 2
e 126 3
e 126 4
e 126 5
e 126 6
e 126 7
e 126 8
e 126 9
e 126 10
e 126 11
e 126 12
e 126 13
e 126 14
e 126 15
e 126 16
e 126 17
e 126 27
e 126 33
e 126 36
e 126 41
e 126 43
e 126 45
e 126 48
e 126 51
e 126 54
e 126 61
e 126 125
e 127 1
e 127 2
e 127 3
e 127 4
e 127 5
e 127 6
e 127 7
e 127 8
e 127 9
e 127 10
e 127 11
e 127 12
e 127 13
e 127 14
e 127 15
e 127 16
e 127 17
e 127 27
e 127 33
e 127 36
e 127 41
e 127 43
e 127 45
e 127 48
e 127 51
e 127 54
e 127 61
e 127 125
e 128 1
e 128 2
e 128 3
e 128 4
e 128 5
e 128 6
e 128 7
e 128 8
e 128 9
e 128 10
e 128 11
e 128 12
e 128 13
e 128 14
e 128 15
e 128 16
e 128 17
e 128 36
e 129 1
e 129 2
e 129 3
e 129 4
e 129 5
e 129 6
e 129 7
e 129 8
e 129 9
e 129 10
e 129 11
e 129 12
e 129 13
e 129 14
e 129 15
e 129 16
e 129 17
e 129 36
e 130 1
e 130 2
e 130 3
e 130 4
e 130 5
e 130 6
e 130 7
e 130 8
e 130 9
e 130 10
e 130 11
e 130 12
e 130 13
e 130 14
e 130 15
e 130 16
e 130 17
e 130 36
e 131 1
e 131 2
e 131 3
e 131 4
e 131 5
e 131 6
e 131 7
e 131 8
e 131 9
e 131 10
e 131 11
e 131 12
e 131 13
e 131 14
e 131 15
e 131 16
e 131 17
e 131 27
e 131 36
e 132 1
e 132 2
e 132 3
e 132 4
e 132 5
e 132 6
e 132 7
e 132 8
e 132 9
e 132 10
e 132 11
e 132 12
e 132 13
e 132 14
e 132 15
e 132 16
e 132 17
e 132 26
e 132 27
e 132 36
e 132 131
e 133 1
e 133 2
e 133 3
e 133 4
e 133 5
e 133 6
e 133 7
e 133 8
e 133 9
e 133 10
e 133 11
e 133 12
e 133 13
e 133 14
e 133 15
e 133 16
e 133 17
e 133 25
e 133 26
e 133 27
e 133 36
e 133 131
e 133 132
e 134 1
e 134 2
e 134 3
e 134 4
e 134 5
e 134 6
e 134 7
e 134 8
e 134 9
e 134 10
e 134 11
e 134 12
e 134 13
e 134 14
e 134 15
e 134 16
e 134 17
e 134 24
e 134 25
e 134 26
e 134 27
e 134 36
e 134 131
e 134 132
e 134 133
e 135 1
e 135 2
e 135 3
e 135 4
e 135 5
e 135 6
e 135 7
e 135 8
e 135 9
e 135 10
e 135 11
e 135 12
e 135 13
e 135 14
e 135 15
e 135 16
e 135 17
e 135 23
e 135 24
e 135 25
e 135 26
e 135 27
e 135 36
e 135 131
e 135 132
e 135 133
e 135 134
e 136 1
e 136 2
e 136 3
e 136 4
e 136 5
e 136 6
e 136 7
e 136 8
e 136 9
e 136 10
e 136 11
e 136 12
e 136 13
e 136 14
e 136 15
e 136 16
e 136 17
e 136 22
e 136 23
e 136 24
e 136 25
e 136 26
e 136 27
e 136 36
e 136 131
e 136 132
e 136 133
e 136 134
e 136 135
e 137 1
e 137 2
e 137 3
e 137 4
e 137 5
e 137 6
e 137 7
e 137 8
e 137 9
e 137 10
e 137 11
e 137 12
e 137 13
e 137 14
e 137 15
e 137 16
e 137 17
e 137 21
e 137 22
e 137 23
e 137 24
e 137 25
e 137 26
e 137 27
e 137 36
e 137 131
e 137 132
e 137 133
e 137 134
e 137 135
e 137 136
e 138 1
e 138 2
e 138 3
e 138 4
e 138 5
e 138 6
e 138 7
e 138 8
e 138 9
e 138 10
e 138 11
e 138 12
e 138 13
e 138 14
e 138 15
e 138 16
e 138 17
e 138 20
e 138 21
e 138 22
e 138 23
e 138 24
e 138 25
e 138 26
e 138 27
e 138 36
e 138 131
e 138 132
e 138 133
e 138 134
e 138 135
e 138 136
e 138 137
e 139 1
e 139 2
e 139 3
e 139 4
e 139 5
e 139 6
e 139 7
e 139 8
e 139 9
e 139 10
e 139 11
e 139 12
e 139 13
e 139 14
e 139 15
e 139 16
e 139 17
e 139 19
e 139 20
e 139 21
e 139 22
e 139 23
e 139 24
e 139 25
e 139 26
e 139 27
e 139 36
e 139 131
e 139 132
e 139 133
e 139 134
e 139 135
e 139 136
e 139 137
e 139 138
e 140 1
e 140 2
e 140 9
e 140 10
e 140 16
e 140 17
e 140 18
e 140 19
e 140 20
e 140 21
e 140 22
e 140 23
e 140 24
e 140 25
e 140 26
e 140 27
e 140 28
e 140 29
e 140 30
e 140 31
e 140 32
e 140 67
e 140 68
e 140 69
e 141 1
e 141 2
e 141 8
e 141 9
e 141 10
e 141 16
e 141 17
e 141 18
e 141 19
e 141 20
e 141 21
e 141 22
e 141 23
e 141 24
e 141 25
e 141 26
e 141 27
e 141 28
e 141 29
e 141 30
e 141 31
e 141 32
e 141 67
e 141 68
e 141 69
e 141 140
e 142 1
e 142 2
e 142 7
e 142 8
e 142 9
e 142 10
e 142 16
e 142 17
e 142 18
e 142 19
e 142 20
e 142 21
e 142 22
e 142 23
e 142 24
e 142 25
e 142 26
e 142 27
e 142 28
e 142 29
e 142 30
e 142 31
e 142 32
e 142 67
e 142 68
e 142 69
e 142 140
e 142 141
e 143 1
e 143 2
e 143 6
e 143 7
e 143 8
e 143 9
e 143 10
e 143 16
e 143 17
e 143 18
e 143 19
e 143 20
e 143 21
e 143 22
e 143 23
e 143 24
e 143 25
e 143 26
e 143 27
e 143 28
e 143 29
e 143 30
e 143 31
e 143 32
e 143 67
e 143 68
e 143 69
e 143 140
e 143 141
e 143 142
e 144 1
e 144 2
e 144 5
e 144 6
e 144 7
e 144 8
e 144 9
e 144 10
e 144 16
e 144 17
e 144 18
e 144 19
e 144 20
e 144 21
e 144 22
e 144 23
e 144 24
e 144 25
e 144 26
e 144 27
e 144 28
e 144 29
e 144 30
e 144 31
e 144 32
e 144 67
e 144 68
e 144 69
e 144 140
e 144 141
e 144 142
e 144 143
e 145 1
e 145 2
e 145 3
e 145 4
e 145 5
e 145 6
e 145 7
e 145 8
e 145 9
e 145 10
e 145 11
e 145 12
e 145 13
e 145 14
e 145 15
e 145 16
e 145 17
e 145 27
e 145 33
e 145 36
e 145 41
e 145 43
e 145 45
e 145 48
e 145 51
e 145 54
e 145 61
e 145 125
e 146 1
e 146 2
e 146 3
e 146 4
e 146 5
e 146 6
e 146 7
e 146 8
e 146 9
e 146 10
e 146 11
e 146 12
e 146 13
e 146 14
e 146 15
e 146 16
e 146 17
e 146 27
e 146 33
e 146 36
e 146 41
e 146 43
e 146 45
e 146 48
e 146 51
e 146 54
e 146 61
e 146 125
e 147 1
e 147 2
e 147 3
e 147 4
e 147 5
e 147 6
e 147 7
e 147 8
e 147 9
e 147 10
e 147 11
e 147 12
e 147 13
e 147 14
e 147 15
e 147 16
e 147 17
e 147 27
e 147 33
e 147 36
e 147 41
e 147 43
e 147 45
e 147 48
e 147 51
e 147 54
e 147 61
e 147 125
e 148 1
e 148 2
e 148 3
e 148 4
e 148 5
e 148 6
e 148 7
e 148 8
e 148 9
e 148 10
e 148 11
e 148 12
e 148 13
e 148 14
e 148 15
e 148 16
e 148 17
e 148 27
e 148 33
e 148 36
e 148 41
e 148 43
e 148 45
e 148 48
e 148 51
e 148 54
e 148 61
e 148 125
e 151 1
e 151 2
e 151 3
e 151 4
e 151 5
e 151 6
e 151 7
e 151 8
e 151 9
e 151 10
e 151 11
e 151 12
e 151 13
e 151 14
e 151 15
e 151 16
e 151 17
e 151 27
e 151 33
e 151 36
e 151 41
e 151 43
e 151 45
e 151 48
e 151 54
e 151 61
e 151 125
e 152 1
e 152 2
e 152 3
e 152 4
e 152 5
e 152 6
e 152 7
e 152 8
e 152 9
e 152 10
e 152 11
e 152 12
e 152 13
e 152 14
e 152 15
e 152 16
e 152 17
e 152 27
e 152 33
e 152 36
e 152 41
e 152 43
e 152 45
e 152 48
e 152 54
e 152 61
e 152 125
e 154 1
e 154 2
e 154 3
e 154 4
e 154 5
e 154 6
e 154 7
e 154 8
e 154 9
e 154 10
e 154 11
e 154 12
e 154 13
e 154 14
e 154 15
e 154 16
e 154 17
e 154 27
e 154 33
e 154 36
e 154 41
e 154 43
e 154 45
e 154 48
e 154 51
e 154 54
e 156 1
e 156 2
e 156 3
e 156 4
e 156 5
e 156 6
e 156 7
e 156 8
e 156 9
e 156 10
e 156 11
e 156 12
e 156 13
e 156 14
e 156 15
e 156 16
e 156 17
e 156 27
e 156 33
e 156 36
e 156 41
e 156 43
e 156 45
e 156 48
e 156 51
e 156 54
e 162 1
e 162 2
e 162 3
e 162 4
e 162 5
e 162 6
e 162 7
e 162 8
e 162 9
e 162 10
e 162 11
e 162 12
e 162 13
e 162 14
e 162 15
e 162 16
e 162 17
e 162 27
e 162 33
e 162 36
e 162 41
e 162 43
e 162 45
e 162 48
e 162 51
e 162 54
e 162 61
e 162 125
e 163 1
e 163 2
e 163 3
e 163 4
e 163 5
e 163 6
e 163 7
e 163 8
e 163 9
e 163 10
e 163 11
e 163 12
e 163 13
e 163 14
e 163 15
e 163 16
e 163 17
e 163 27
e 163 33
e 163 36
e 163 41
e 163 43
e 163 45
e 163 48
e 163 51
e 163 54
e 163 61
e 163 125
e 163 162
e 164 1
e 164 2
e 164 3
e 164 4
e 164 5
e 164 6
e 164 7
e 164 8
e 164 9
e 164 10
e 164 11
e 164 12
e 164 13
e 164 14
e 164 15
e 164 16
e 164 17
e 164 27
e 164 33
e 164 36
e 164 41
e 164 43
e 164 45
e 164 48
e 164 51
e 164 54
e 164 61
e 164 125
e 165 1
e 165 2
e 165 3
e 165 4
e 165 5
e 165 6
e 165 7
e 165 8
e 165 9
e 165 10
e 165 11
e 165 12
e 165 13
e 165 14
e 165 15
e 165 16
e 165 17
e 165 27
e 165 33
e 165 36
e 165 41
e 165 43
e 165 45
e 165 48
e 165 51
e 165 54
e 165 61
e 165 125
e 166 1
e 166 2
e 166 3
e 166 4
e 166 5
e 166 6
e 166 7
e 166 8
e 166 9
e 166 10
e 166 11
e 166 12
e 166 13
e 166 14
e 166 15
e 166 16
e 166 17
e 166 27
e 166 36
e 166 41
e 166 43
e 166 45
e 166 51
e 166 54
e 166 56
e 166 61
e 166 125
e 167 1
e 167 2
e 167 3
e 167 4
e 167 5
e 167 6
e 167 7
e 167 8
e 167 9
e 167 10
e 167 11
e 167 12
e 167 13
e 167 14
e 167 15
e 167 16
e 167 17
e 167 27
e 167 36
e 167 41
e 167 43
e 167 45
e 167 51
e 167 54
e 167 61
e 167 125
e 167 166
e 168 1
e 168 2
e 168 3
e 168 4
e 168 5
e 168 6
e 168 7
e 168 8
e 168 9
e 168 10
e 168 11
e 168 12
e 168 13
e 168 14
e 168 15
e 168 16
e 168 17
e 168 27
e 168 36
e 168 41
e 168 43
e 168 45
e 168 51
e 168 54
e 168 61
e 168 125
e 168 166
e 170 1
e 170 2
e 170 3
e 170 4
e 170 5
e 170 6
e 170 7
e 170 8
e 170 9
e 170 10
e 170 11
e 170 12
e 170 13
e 170 14
e 170 15
e 170 16
e 170 17
e 170 27
e 170 36
e 170 41
e 170 43
e 170 45
e 170 51
e 170 54
e 170 56
e 170 61
e 170 125
e 170 166
e 172 1
e 172 2
e 172 3
e 172 4
e 172 5
e 172 6
e 172 7
e 172 8
e 172 9
e 172 10
e 172 11
e 172 12
e 172 13
e 172 14
e 172 15
e 172 16
e 172 17
e 172 27
e 172 36
e 172 41
e 172 43
e 172 45
e 172 51
e 172 54
e 172 57
e 172 61
e 172 125
e 173 1
e 173 2
e 173 3
e 173 4
e 173 5
e 173 6
e 173 7
e 173 8
e 173 9
e 173 10
e 173 11
e 173 12
e 173 13
e 173 14
e 173 15
e 173 16
e 173 17
e 173 27
e 173 36
e 173 41
e 173 43
e 173 45
e 173 51
e 173 54
e 173 57
e 173 61
e 173 125
e 173 172
e 174 1
e 174 2
e 174 3
e 174 4
e 174 5
e 174 6
e 174 7
e 174 8
e 174 9
e 174 10
e 174 11
e 174 12
e 174 13
e 174 14
e 174 15
e 174 16
e 174 17
e 174 27
e 174 36
e 174 41
e 174 43
e 174 45
e 174 51
e 174 54
e 174 57
e 174 61
e 174 125
e 174 172
e 174 173
e 175 1
e 175 2
e 175 3
e 175 4
e 175 5
e 175 6
e 175 7
e 175 8
e 175 9
e 175 10
e 175 11
e 175 12
e 175 13
e 175 14
e 175 15
e 175 16
e 175 17
e 175 27
e 175 36
e 175 41
e 175 43
e 175 45
e 175 51
e 175 54
e 175 57
e 175 61
e 175 125
e 175 172
e 175 174
e 176 1
e 176 2
e 176 3
e 176 4
e 176 5
e 176 6
e 176 7
e 176 8
e 176 9
e 176 10
e 176 11
e 176 12
e 176 13
e 176 14
e 176 15
e 176 16
e 176 17
e 176 27
e 176 36
e 176 41
e 176 43
e 176 45
e 176 51
e 176 54
e 176 57
e 176 61
e 176 125
e 176 172
e 176 175
e 177 1
e 177 2
e 177 3
e 177 4
e 177 5
e 177 6
e 177 7
e 177 8
e 177 9
e 177 10
e 177 11
e 177 12
e 177 13
e 177 14
e 177 15
e 177 16
e 177 17
e 177 27
e 177 36
e 177 41
e 177 43
e 177 45
e 177 51
e 177 54
e 177 57
e 177 61
e 177 125
e 177 172
e 177 175
e 178 1
e 178 2
e 178 3
e 178 4
e 178 5
e 178 6
e 178 7
e 178 8
e 178 9
e 178 10
e 178 11
e 178 12
e 178 13
e 178 14
e 178 15
e 178 16
e 178 17
e 178 27
e 178 36
e 178 41
e 178 43
e 178 45
e 178 51
e 178 54
e 178 57
e 178 61
e 178 125
e 178 172
e 178 175
e 178 177
e 179 1
e 179 2
e 179 3
e 179 4
e 179 5
e 179 6
e 179 7
e 179 8
e 179 9
e 179 10
e 179 11
e 179 12
e 179 13
e 179 14
e 179 15
e 179 16
e 179 17
e 179 27
e 179 36
e 179 41
e 179 43
e 179 45
e 179 51
e 179 54
e 179 57
e 179 61
e 179 125
e 179 172
e 179 175
e 179 177
e 180 1
e 180 2
e 180 3
e 180 4
e 180 5
e 180 6
e 180 7
e 180 8
e 180 9
e 180 10
e 180 11
e 180 12
e 180 13
e 180 14
e 180 15
e 180 16
e 180 17
e 180 27
e 180 36
e 180 41
e 180 43
e 180 45
e 180 51
e 180 54
e 180 57
e 180 61
e 180 125
e 180 172
e 180 175
e 181 1
e 181 2
e 181 3
e 181 4
e 181 5
e 181 6
e 181 7
e 181 8
e 181 9
e 181 10
e 181 11
e 181 12
e 181 13
e 181 14
e 181 15
e 181 16
e 181 17
e 181 27
e 181 36
e 181 41
e 181 43
e 181 45
e 181 51
e 181 54
e 181 57
e 181 61
e 181 125
e 181 172
e 182 1
e 182 2
e 182 3
e 182 4
e 182 5
e 182 6
e 182 7
e 182 8
e 182 9
e 182 10
e 182 11
e 182 12
e 182 13
e 182 14
e 182 15
e 182 16
e 182 17
e 182 27
e 182 36
e 182 41
e 182 43
e 182 45
e 182 51
e 182 54
e 182 57
e 182 61
e 182 125
e 182 172
e 183 1
e 183 2
e 183 3
e 183 4
e 183 5
e 183 6
e 183 7
e 183 8
e 183 9
e 183 10
e 183 11
e 183 12
e 183 13
e 183 14
e 183 15
e 183 16
e 183 17
e 183 27
e 183 36
e 183 41
e 183 43
e 183 51
e 183 54
e 183 57
e 183 61
e 183 125
e 183 172
e 184 1
e 184 2
e 184 3
e 184 4
e 184 5
e 184 6
e 184 7
e 184 8
e 184 9
e 184 10
e 184 11
e 184 12
e 184 13
e 184 14
e 184 15
e 184 16
e 184 17
e 184 27
e 184 36
e 184 41
e 184 43
e 184 51
e 184 54
e 184 57
e 184 61
e 184 125
e 184 172
e 185 1
e 185 2
e 185 3
e 185 4
e 185 5
e 185 6
e 185 7
e 185 8
e 185 9
e 185 10
e 185 11
e 185 12
e 185 13
e 185 14
e 185 15
e 185 16
e 185 17
e 185 27
e 185 36
e 185 41
e 185 43
e 185 51
e 185 54
e 185 57
e 185 61
e 185 125
e 185 172
e 186 1
e 186 2
e 186 3
e 186 4
e 186 5
e 186 6
e 186 7
e 186 8
e 186 9
e 186 10
e 186 11
e 186 12
e 186 13
e 186 14
e 186 15
e 186 16
e 186 17
e 186 27
e 186 36
e 186 41
e 186 43
e 186 51
e 186 54
e 186 57
e 186 61
e 186 125
e 186 172
e 190 1
e 190 2
e 190 3
e 190 4
e 190 5
e 190 6
e 190 7
e 190 8
e 190 9
e 190 10
e 190 11
e 190 12
e 190 13
e 190 14
e 190 15
e 190 16
e 190 17
e 190 27
e 190 36
e 190 41
e 190 43
e 190 45
e 190 48
e 190 51
e 190 54
e 190 61
e 190 125
e 191 1
e 191 2
e 191 3
e 191 4
e 191 5
e 191 6
e 191 7
e 191 8
e 191 9
e 191 10
e 191 11
e 191 12
e 191 13
e 191 14
e 191 15
e 191 16
e 191 17
e 191 27
e 191 36
e 191 41
e 191 43
e 191 45
e 191 48
e 191 51
e 191 54
e 191 56
e 191 61
e 191 125
e 191 190
e 192 1
e 192 2
e 192 3
e 192 4
e 192 5
e 192 6
e 192 7
e 192 8
e 192 9
e 192 10
e 192 11
e 192 12
e 192 13
e 192 14
e 192 15
e 192 16
e 192 17
e 192 27
e 192 36
e 192 41
e 192 43
e 192 45
e 192 48
e 192 51
e 192 54
e 192 61
e 192 125
e 192 190
e 192 191
e 193 1
e 193 2
e 193 3
e 193 4
e 193 5
e 193 6
e 193 7
e 193 8
e 193 9
e 193 10
e 193 11
e 193 12
e 193 13
e 193 14
e 193 15
e 193 16
e 193 17
e 193 27
e 193 36
e 193 41
e 193 43
e 193 45
e 193 51
e 193 54
e 193 56
e 193 61
e 193 125
e 193 190
e 193 191
e 193 192
e 194 1
e 194 2
e 194 3
e 194 4
e 194 5
e 194 6
e 194 7
e 194 8
e 194 9
e 194 10
e 194 11
e 194 12
e 194 13
e 194 14
e 194 15
e 194 16
e 194 17
e 194 27
e 194 36
e 194 41
e 194 43
e 194 45
e 194 51
e 194 54
e 194 61
e 194 125
e 194 190
e 194 191
e 194 192
e 194 193
e 195 1
e 195 2
e 195 3
e 195 4
e 195 5
e 195 6
e 195 7
e 195 8
e 195 9
e 195 10
e 195 11
e 195 12
e 195 13
e 195 14
e 195 15
e 195 16
e 195 17
e 195 27
e 195 36
e 195 41
e 195 43
e 195 45
e 195 51
e 195 54
e 195 61
e 195 125
e 195 190
e 195 191
e 195 192
e 195 193
e 196 1
e 196 2
e 196 3
e 196 4
e 196 5
e 196 6
e 196 7
e 196 8
e 196 9
e 196 10
e 196 11
e 196 12
e 196 13
e 196 14
e 196 15
e 196 16
e 196 17
e 196 27
e 196 36
e 196 41
e 196 43
e 196 45
e 196 51
e 196 54
e 196 61
e 196 125
e 196 190
e 196 191
e 196 192
e 196 193
e 197 1
e 197 2
e 197 3
e 197 4
e 197 5
e 197 6
e 197 7
e 197 8
e 197 9
e 197 10
e 197 11
e 197 12
e 197 13
e 197 14
e 197 15
e 197 16
e 197 17
e 197 27
e 197 36
e 197 41
e 197 43
e 197 45
e 197 51
e 197 54
e 197 61
e 197 125
e 197 190
e 197 191
e 197 192
e 197 193
e 197 196
e 198 1
e 198 2
e 198 3
e 198 4
e 198 5
e 198 6
e 198 7
e 198 8
e 198 9
e 198 10
e 198 11
e 198 12
e 198 13
e 198 14
e 198 15
e 198 16
e 198 17
e 198 27
e 198 36
e 198 41
e 198 43
e 198 45
e 198 51
e 198 54
e 198 61
e 198 125
e 198 190
e 198 191
e 198 192
e 198 193
e 199 1
e 199 2
e 199 3
e 199 4
e 199 5
e 199 6
e 199 7
e 199 8
e 199 9
e 199 10
e 199 11
e 199 12
e 199 13
e 199 14
e 199 15
e 199 16
e 199 17
e 199 27
e 199 36
e 199 41
e 199 43
e 199 45
e 199 51
e 199 54
e 199 61
e 199 125
e 199 190
e 199 191
e 199 192
e 199 193
e 199 198
e 200 1
e 200 2
e 200 3
e 200 4
e 200 5
e 200 6
e 200 7
e 200 8
e 200 9
e 200 10
e 200 11
e 200 12
e 200 13
e 200 14
e 200 15
e 200 16
e 200 17
e 200 27
e 200 36
e 200 41
e 200 43
e 200 45
e 200 51
e 200 54
e 200 56
e 200 61
e 200 125
e 200 190
e 200 191
e 200 193
e 200 198
e 201 1
e 201 2
e 201 3
e 201 4
e 201 5
e 201 6
e 201 7
e 201 8
e 201 9
e 201 10
e 201 11
e 201 12
e 201 13
e 201 14
e 201 15
e 201 16
e 201 17
e 201 27
e 201 36
e 201 41
e 201 43
e 201 45
e 201 51
e 201 54
e 201 61
e 201 125
e 201 191
e 201 193
e 201 198
e 201 200
e 202 1
e 202 2
e 202 3
e 202 4
e 202 5
e 202 6
e 202 7
e 202 8
e 202 9
e 202 10
e 202 11
e 202 12
e 202 13
e 202 14
e 202 15
e 202 16
e 202 17
e 202 27
e 202 36
e 202 41
e 202 43
e 202 45
e 202 51
e 202 54
e 202 61
e 202 125
e 202 191
e 202 193
e 202 200
e 204 1
e 204 2
e 204 3
e 204 4
e 204 5
e 204 6
e 204 7
e 204 8
e 204 9
e 204 10
e 204 11
e 204 12
e 204 13
e 204 14
e 204 15
e 204 16
e 204 17
e 204 27
e 204 36
e 204 41
e 204 43
e 204 45
e 204 51
e 204 54
e 204 56
e 204 61
e 204 125
e 204 191
e 204 193
e 204 200
e 205 1
e 205 2
e 205 3
e 205 4
e 205 5
e 205 6
e 205 7
e 205 8
e 205 9
e 205 10
e 205 11
e 205 12
e 205 13
e 205 14
e 205 15
e 205 16
e 205 17
e 205 27
e 205 36
e 205 41
e 205 43
e 205 45
e 205 51
e 205 54
e 205 56
e 205 61
e 205 125
e 205 193
e 205 200
e 206 1
e 206 2
e 206 3
e 206 4
e 206 5
e 206 6
e 206 7
e 206 8
e 206 9
e 206 10
e 206 11
e 206 12
e 206 13
e 206 14
e 206 15
e 206 16
e 206 17
e 206 27
e 206 36
e 206 41
e 206 43
e 206 45
e 206 51
e 206 54
e 206 56
e 206 61
e 206 125
e 206 193
e 207 1
e 207 2
e 207 3
e 207 4
e 207 5
e 207 6
e 207 7
e 207 8
e 207 9
e 207 10
e 207 11
e 207 12
e 207 13
e 207 14
e 207 15
e 207 16
e 207 17
e 207 27
e 207 36
e 207 41
e 207 43
e 207 45
e 207 51
e 207 54
e 207 56
e 207 61
e 207 125
e 207 193
e 207 206
e 208 1
e 208 2
e 208 3
e 208 4
e 208 5
e 208 6
e 208 7
e 208 8
e 208 9
e 208 10
e 208 11
e 208 12
e 208 13
e 208 14
e 208 15
e 208 16
e 208 17
e 208 27
e 208 36
e 208 41
e 208 43
e 208 45
e 208 51
e 208 54
e 208 56
e 208 61
e 208 125
e 208 206
e 210 1
e 210 2
e 210 3
e 210 4
e 210 5
e 210 6
e 210 7
e 210 8
e 210 9
e 210 10
e 210 11
e 210 12
e 210 13
e 210 14
e 210 15
e 210 16
e 210 17
e 210 27
e 210 33
e 210 36
e 210 41
e 210 43
e 210 45
e 210 48
e 210 51
e 210 54
e 211 1
e 211 2
e 211 3
e 211 4
e 211 5
e 211 6
e 211 7
e 211 8
e 211 9
e 211 10
e 211 11
e 211 12
e 211 13
e 211 14
e 211 15
e 211 16
e 211 17
e 211 27
e 211 33
e 211 36
e 211 41
e 211 43
e 211 45
e 211 48
e 211 51
e 211 54
e 211 210
